\ENCODING=ISO-8859-1
\Problem name: ilog.cplex

Minimize
 obj1: 94242 x1 + 104267 x2 + 99158 x3 + 101543 x4 + 99342 x5 + 104192 x6
       + 101091 x7 + 109543 x8 + 91552 x9 + 101815 x10 + 99113 x11 + 101810 x12
       + 99184 x13 + 90651 x14 + 90748 x15 + 107858 x16 + 101088 x17
       + 98605 x18 + 107235 x19 + 90590 x20 + 101944 x21 + 104836 x22
       + 106109 x23 + 104472 x24 + 107997 x25 + 93927 x26 + 109911 x27
       + 91125 x28 + 95056 x29 + 105712 x30 + 99437 x31 + 95797 x32 + 96399 x33
       + 108235 x34 + 93545 x35 + 97570 x36 + 94612 x37 + 95989 x38
       + 101744 x39 + 91172 x40 + 98497 x41 + 95946 x42 + 100718 x43
       + 98935 x44 + 103806 x45 + 109820 x46 + 101346 x47 + 107660 x48
       + 94886 x49 + 92604 x50 + 98972 x51 + 97105 x52 + 103254 x53
       + 104616 x54 + 96341 x55 + 94281 x56 + 98642 x57 + 97136 x58 + 96057 x59
       + 90904 x60 + 100139 x61 + 100773 x62 + 94881 x63 + 100456 x64
       + 103134 x65 + 93067 x66 + 93229 x67 + 101697 x68 + 105881 x69
       + 99609 x70 + 92106 x71 + 91028 x72 + 92578 x73 + 107304 x74
       + 100936 x75 + 105828 x76 + 102954 x77 + 101696 x78 + 97717 x79
       + 104587 x80 + 97877 x81 + 94485 x82 + 90976 x83 + 106514 x84
       + 90115 x85 + 106796 x86 + 92853 x87 + 95255 x88 + 105270 x89
       + 107864 x90 + 102002 x91 + 107944 x92 + 101630 x93 + 94551 x94
       + 94082 x95 + 104405 x96 + 97134 x97 + 103580 x98 + 102312 x99
       + 95568 x100 + 106634 x101 + 95394 x102 + 100891 x103 + 105035 x104
       + 103273 x105 + 96227 x106 + 100067 x107 + 103186 x108 + 104101 x109
       + 93296 x110 + 103178 x111 + 109394 x112 + 101918 x113 + 106915 x114
       + 103238 x115 + 104567 x116 + 102862 x117 + 92914 x118 + 109450 x119
       + 93688 x120 + 105946 x121 + 101149 x122 + 108715 x123 + 101427 x124
       + 98695 x125 + 106402 x126 + 100855 x127 + 95133 x128 + 100718 x129
       + 105097 x130 + 98677 x131 + 105758 x132 + 90117 x133 + 109842 x134
       + 102885 x135 + 93586 x136 + 92659 x137 + 90668 x138 + 90117 x139
       + 98547 x140 + 107505 x141 + 92205 x142 + 95323 x143 + 106149 x144
       + 99000 x145 + 98444 x146 + 90244 x147 + 103401 x148 + 95563 x149
       + 105396 x150 + 105424 x151 + 103686 x152 + 109684 x153 + 95751 x154
       + 99007 x155 + 108695 x156 + 96691 x157 + 99004 x158 + 92015 x159
       + 90195 x160 + 104136 x161 + 105560 x162 + 106811 x163 + 94760 x164
       + 108565 x165 + 103953 x166 + 103180 x167 + 100533 x168 + 91872 x169
       + 106614 x170 + 104698 x171 + 106697 x172 + 95603 x173 + 101473 x174
       + 107067 x175 + 93495 x176 + 108270 x177 + 94247 x178 + 99546 x179
       + 93525 x180 + 103447 x181 + 101846 x182 + 96340 x183 + 91882 x184
       + 99351 x185 + 108087 x186 + 102546 x187 + 108175 x188 + 98722 x189
       + 94344 x190 + 103860 x191 + 98885 x192 + 97289 x193 + 105095 x194
       + 109662 x195 + 99436 x196 + 99978 x197 + 99983 x198 + 100458 x199
       + 90149 x200 + 101807 x201 + 91711 x202 + 93019 x203 + 96169 x204
       + 96716 x205 + 95183 x206 + 100547 x207 + 108787 x208 + 100220 x209
       + 91703 x210 + 103479 x211 + 103443 x212 + 105170 x213 + 95097 x214
       + 90345 x215 + 95465 x216 + 109031 x217 + 100178 x218 + 107468 x219
       + 101035 x220 + 95772 x221 + 98281 x222 + 91315 x223 + 97927 x224
       + 105811 x225 + 99374 x226 + 107973 x227 + 108235 x228 + 103385 x229
       + 105827 x230 + 90459 x231 + 93600 x232 + 92343 x233 + 98962 x234
       + 106502 x235 + 102397 x236 + 98517 x237 + 106289 x238 + 106930 x239
       + 97857 x240 + 106309 x241 + 102716 x242 + 102727 x243 + 109399 x244
       + 95509 x245 + 91031 x246 + 104127 x247 + 95347 x248 + 104452 x249
       + 96352 x250 + 103206 x251 + 103641 x252 + 98112 x253 + 102607 x254
       + 103534 x255 + 106380 x256 + 93246 x257 + 91976 x258 + 101062 x259
       + 94792 x260 + 94666 x261 + 109052 x262 + 94366 x263 + 108747 x264
       + 95347 x265 + 91483 x266 + 96278 x267 + 93727 x268 + 108272 x269
       + 103257 x270 + 93561 x271 + 96186 x272 + 93070 x273 + 90259 x274
       + 94298 x275 + 102011 x276 + 96351 x277 + 106796 x278 + 106234 x279
       + 92203 x280 + 101028 x281 + 96526 x282 + 103590 x283 + 94884 x284
       + 96974 x285 + 91506 x286 + 104696 x287 + 93425 x288 + 103060 x289
       + 99091 x290 + 98310 x291 + 106720 x292 + 108896 x293 + 97948 x294
       + 102585 x295 + 109538 x296 + 103523 x297 + 101690 x298 + 97374 x299
       + 103320 x300 + 198933 x301 + 202234 x302 + 186412 x303 + 184213 x304
       + 183291 x305 + 193124 x306 + 188589 x307 + 205098 x308 + 194313 x309
       + 211852 x310 + 204596 x311 + 204119 x312 + 216854 x313 + 200126 x314
       + 195361 x315 + 195644 x316 + 197155 x317 + 206959 x318 + 215460 x319
       + 217698 x320 + 212852 x321 + 202948 x322 + 217949 x323 + 219524 x324
       + 185325 x325 + 191627 x326 + 205111 x327 + 190039 x328 + 189976 x329
       + 186393 x330 + 203035 x331 + 219143 x332 + 218155 x333 + 194376 x334
       + 208028 x335 + 213574 x336 + 196389 x337 + 205203 x338 + 216588 x339
       + 202490 x340 + 214228 x341 + 202989 x342 + 188272 x343 + 205151 x344
       + 211426 x345 + 203951 x346 + 182019 x347 + 214100 x348 + 188359 x349
       + 189920 x350 + 191580 x351 + 211926 x352 + 210477 x353 + 199634 x354
       + 184454 x355 + 208192 x356 + 198255 x357 + 195000 x358 + 201304 x359
       + 118007 x360
Subject To
 c1:   x7 - x10 + x17 - x23 + x32 - x35 - x45 - x49 - x53 - x57 + x58  = -1
 c2:   x67 - x70 + x77 - x83 + x92 - x95 - x105 - x109 - x113 - x117 + x118
        = 0
 c3:   x127 - x130 + x137 - x143 + x152 - x155 - x165 - x169 - x173 - x177
       + x178  = 0
 c4:   x187 - x190 + x197 - x203 + x212 - x215 - x225 - x229 - x233 - x237
       + x238  = -1
 c5:   x247 - x250 + x257 - x263 + x272 - x275 - x285 - x289 - x293 - x297
       + x298  = 0
 c6:   - x11 + x14 + x19 + x20 + x22 + x24 - x27 - x41 + x46 - x50 - x51 - x56
        = 0
 c7:   - x71 + x74 + x79 + x80 + x82 + x84 - x87 - x101 + x106 - x110 - x111
       - x116  = 0
 c8:   - x131 + x134 + x139 + x140 + x142 + x144 - x147 - x161 + x166 - x170
       - x171 - x176  = -1
 c9:   - x191 + x194 + x199 + x200 + x202 + x204 - x207 - x221 + x226 - x230
       - x231 - x236  = 0
 c10:  - x251 + x254 + x259 + x260 + x262 + x264 - x267 - x281 + x286 - x290
       - x291 - x296  = 0
 c11:  - x2 - x6 + x13 + x16 + x18 - x25 + x26 - x29 - x42 + x44 + x47 + x51
        = 0
 c12:  - x62 - x66 + x73 + x76 + x78 - x85 + x86 - x89 - x102 + x104 + x107
       + x111  = 0
 c13:  - x122 - x126 + x133 + x136 + x138 - x145 + x146 - x149 - x162 + x164
       + x167 + x171  = 0
 c14:  - x182 - x186 + x193 + x196 + x198 - x205 + x206 - x209 - x222 + x224
       + x227 + x231  = 0
 c15:  - x242 - x246 + x253 + x256 + x258 - x265 + x266 - x269 - x282 + x284
       + x287 + x291  = 1
 c16:  - x5 + x6 + x11 - x12 - x14 - x26 + x34 + x36 + x39 - x40 + x49 - x52
       - x60  = 0
 c17:  - x65 + x66 + x71 - x72 - x74 - x86 + x94 + x96 + x99 - x100 + x109
       - x112 - x120  = -1
 c18:  - x125 + x126 + x131 - x132 - x134 - x146 + x154 + x156 + x159 - x160
       + x169 - x172 - x180  = 0
 c19:  - x185 + x186 + x191 - x192 - x194 - x206 + x214 + x216 + x219 - x220
       + x229 - x232 - x240  = 0
 c20:  - x245 + x246 + x251 - x252 - x254 - x266 + x274 + x276 + x279 - x280
       + x289 - x292 - x300  = -1
 c21:  x3 - x8 - x13 + x37 + x42 - x55 + x56 + x57 - x59  = 0
 c22:  x63 - x68 - x73 + x97 + x102 - x115 + x116 + x117 - x119  = 0
 c23:  x123 - x128 - x133 + x157 + x162 - x175 + x176 + x177 - x179  = 1
 c24:  x183 - x188 - x193 + x217 + x222 - x235 + x236 + x237 - x239  = 0
 c25:  x243 - x248 - x253 + x277 + x282 - x295 + x296 + x297 - x299  = 0
 c26:  - x1 + x2 - x7 - x9 + x15 - x22 + x23 + x30 - x33 - x47 + x48 + x52
       + x55  = 0
 c27:  - x61 + x62 - x67 - x69 + x75 - x82 + x83 + x90 - x93 - x107 + x108
       + x112 + x115  = 1
 c28:  - x121 + x122 - x127 - x129 + x135 - x142 + x143 + x150 - x153 - x167
       + x168 + x172 + x175  = 0
 c29:  - x181 + x182 - x187 - x189 + x195 - x202 + x203 + x210 - x213 - x227
       + x228 + x232 + x235  = 0
 c30:  - x241 + x242 - x247 - x249 + x255 - x262 + x263 + x270 - x273 - x287
       + x288 + x292 + x295  = 0
 c31:  x1 + x5 - x19 + x21 + x27 - x28 - x30 + x38 + x43 + x45  = 0
 c32:  x61 + x65 - x79 + x81 + x87 - x88 - x90 + x98 + x103 + x105  = 0
 c33:  x121 + x125 - x139 + x141 + x147 - x148 - x150 + x158 + x163 + x165  = 0
 c34:  x181 + x185 - x199 + x201 + x207 - x208 - x210 + x218 + x223 + x225  = 0
 c35:  x241 + x245 - x259 + x261 + x267 - x268 - x270 + x278 + x283 + x285  = 0
 c36:  - x3 + x4 + x12 - x15 - x16 - x17 - x20 - x21 + x25 + x28 + x31 + x33
       - x39 + x53 - x54  = 0
 c37:  - x63 + x64 + x72 - x75 - x76 - x77 - x80 - x81 + x85 + x88 + x91 + x93
       - x99 + x113 - x114  = 0
 c38:  - x123 + x124 + x132 - x135 - x136 - x137 - x140 - x141 + x145 + x148
       + x151 + x153 - x159 + x173 - x174  = 0
 c39:  - x183 + x184 + x192 - x195 - x196 - x197 - x200 - x201 + x205 + x208
       + x211 + x213 - x219 + x233 - x234  = 0
 c40:  - x243 + x244 + x252 - x255 - x256 - x257 - x260 - x261 + x265 + x268
       + x271 + x273 - x279 + x293 - x294  = 0
 c41:  - x4 + x8 - x18 - x24 + x29 - x34 + x35 - x37 + x40 - x43 - x48 + x50
       - x58  = 1
 c42:  - x64 + x68 - x78 - x84 + x89 - x94 + x95 - x97 + x100 - x103 - x108
       + x110 - x118  = 0
 c43:  - x124 + x128 - x138 - x144 + x149 - x154 + x155 - x157 + x160 - x163
       - x168 + x170 - x178  = 0
 c44:  - x184 + x188 - x198 - x204 + x209 - x214 + x215 - x217 + x220 - x223
       - x228 + x230 - x238  = 0
 c45:  - x244 + x248 - x258 - x264 + x269 - x274 + x275 - x277 + x280 - x283
       - x288 + x290 - x298  = 0
 c46:  x9 + x10 - x31 - x32 - x36 - x38 + x41 - x44 - x46 + x54 + x59 + x60
        = 0
 c47:  x69 + x70 - x91 - x92 - x96 - x98 + x101 - x104 - x106 + x114 + x119
       + x120  = 0
 c48:  x129 + x130 - x151 - x152 - x156 - x158 + x161 - x164 - x166 + x174
       + x179 + x180  = 0
 c49:  x189 + x190 - x211 - x212 - x216 - x218 + x221 - x224 - x226 + x234
       + x239 + x240  = 1
 c50:  x249 + x250 - x271 - x272 - x276 - x278 + x281 - x284 - x286 + x294
       + x299 + x300  = 0
 c51:  4 x1 + 4 x61 + 4 x121 + 4 x181 + 4 x241 - 2 x301 <= 0
 c52:  4 x2 + 4 x62 + 4 x122 + 4 x182 + 4 x242 - 2 x302 <= 0
 c53:  4 x3 + 4 x63 + 4 x123 + 4 x183 + 4 x243 - 2 x303 <= 0
 c54:  4 x4 + 4 x64 + 4 x124 + 4 x184 + 4 x244 - 2 x304 <= 0
 c55:  4 x5 + 4 x65 + 4 x125 + 4 x185 + 4 x245 - 2 x305 <= 0
 c56:  4 x6 + 4 x66 + 4 x126 + 4 x186 + 4 x246 - 2 x306 <= 0
 c57:  4 x7 + 4 x67 + 4 x127 + 4 x187 + 4 x247 - 2 x307 <= 0
 c58:  4 x8 + 4 x68 + 4 x128 + 4 x188 + 4 x248 - 2 x308 <= 0
 c59:  4 x9 + 4 x69 + 4 x129 + 4 x189 + 4 x249 - 2 x309 <= 0
 c60:  4 x10 + 4 x70 + 4 x130 + 4 x190 + 4 x250 - 2 x310 <= 0
 c61:  4 x11 + 4 x71 + 4 x131 + 4 x191 + 4 x251 - 2 x311 <= 0
 c62:  4 x12 + 4 x72 + 4 x132 + 4 x192 + 4 x252 - 2 x312 <= 0
 c63:  4 x13 + 4 x73 + 4 x133 + 4 x193 + 4 x253 - 2 x313 <= 0
 c64:  4 x14 + 4 x74 + 4 x134 + 4 x194 + 4 x254 - 2 x314 <= 0
 c65:  4 x15 + 4 x75 + 4 x135 + 4 x195 + 4 x255 - 2 x315 <= 0
 c66:  4 x16 + 4 x76 + 4 x136 + 4 x196 + 4 x256 - 2 x316 <= 0
 c67:  4 x17 + 4 x77 + 4 x137 + 4 x197 + 4 x257 - 2 x317 <= 0
 c68:  4 x18 + 4 x78 + 4 x138 + 4 x198 + 4 x258 - 2 x318 <= 0
 c69:  4 x19 + 4 x79 + 4 x139 + 4 x199 + 4 x259 - 2 x319 <= 0
 c70:  4 x20 + 4 x80 + 4 x140 + 4 x200 + 4 x260 - 2 x320 <= 0
 c71:  4 x21 + 4 x81 + 4 x141 + 4 x201 + 4 x261 - 2 x321 <= 0
 c72:  4 x22 + 4 x82 + 4 x142 + 4 x202 + 4 x262 - 2 x322 <= 0
 c73:  4 x23 + 4 x83 + 4 x143 + 4 x203 + 4 x263 - 2 x323 <= 0
 c74:  4 x24 + 4 x84 + 4 x144 + 4 x204 + 4 x264 - 2 x324 <= 0
 c75:  4 x25 + 4 x85 + 4 x145 + 4 x205 + 4 x265 - 2 x325 <= 0
 c76:  4 x26 + 4 x86 + 4 x146 + 4 x206 + 4 x266 - 2 x326 <= 0
 c77:  4 x27 + 4 x87 + 4 x147 + 4 x207 + 4 x267 - 2 x327 <= 0
 c78:  4 x28 + 4 x88 + 4 x148 + 4 x208 + 4 x268 - 2 x328 <= 0
 c79:  4 x29 + 4 x89 + 4 x149 + 4 x209 + 4 x269 - 2 x329 <= 0
 c80:  4 x30 + 4 x90 + 4 x150 + 4 x210 + 4 x270 - 2 x330 <= 0
 c81:  4 x31 + 4 x91 + 4 x151 + 4 x211 + 4 x271 - 2 x331 <= 0
 c82:  4 x32 + 4 x92 + 4 x152 + 4 x212 + 4 x272 - 2 x332 <= 0
 c83:  4 x33 + 4 x93 + 4 x153 + 4 x213 + 4 x273 - 2 x333 <= 0
 c84:  4 x34 + 4 x94 + 4 x154 + 4 x214 + 4 x274 - 2 x334 <= 0
 c85:  4 x35 + 4 x95 + 4 x155 + 4 x215 + 4 x275 - 2 x335 <= 0
 c86:  4 x36 + 4 x96 + 4 x156 + 4 x216 + 4 x276 - 2 x336 <= 0
 c87:  4 x37 + 4 x97 + 4 x157 + 4 x217 + 4 x277 - 2 x337 <= 0
 c88:  4 x38 + 4 x98 + 4 x158 + 4 x218 + 4 x278 - 2 x338 <= 0
 c89:  4 x39 + 4 x99 + 4 x159 + 4 x219 + 4 x279 - 2 x339 <= 0
 c90:  4 x40 + 4 x100 + 4 x160 + 4 x220 + 4 x280 - 2 x340 <= 0
 c91:  4 x41 + 4 x101 + 4 x161 + 4 x221 + 4 x281 - 2 x341 <= 0
 c92:  4 x42 + 4 x102 + 4 x162 + 4 x222 + 4 x282 - 2 x342 <= 0
 c93:  4 x43 + 4 x103 + 4 x163 + 4 x223 + 4 x283 - 2 x343 <= 0
 c94:  4 x44 + 4 x104 + 4 x164 + 4 x224 + 4 x284 - 2 x344 <= 0
 c95:  4 x45 + 4 x105 + 4 x165 + 4 x225 + 4 x285 - 2 x345 <= 0
 c96:  4 x46 + 4 x106 + 4 x166 + 4 x226 + 4 x286 - 2 x346 <= 0
 c97:  4 x47 + 4 x107 + 4 x167 + 4 x227 + 4 x287 - 2 x347 <= 0
 c98:  4 x48 + 4 x108 + 4 x168 + 4 x228 + 4 x288 - 2 x348 <= 0
 c99:  4 x49 + 4 x109 + 4 x169 + 4 x229 + 4 x289 - 2 x349 <= 0
 c100: 4 x50 + 4 x110 + 4 x170 + 4 x230 + 4 x290 - 2 x350 <= 0
 c101: 4 x51 + 4 x111 + 4 x171 + 4 x231 + 4 x291 - 2 x351 <= 0
 c102: 4 x52 + 4 x112 + 4 x172 + 4 x232 + 4 x292 - 2 x352 <= 0
 c103: 4 x53 + 4 x113 + 4 x173 + 4 x233 + 4 x293 - 2 x353 <= 0
 c104: 4 x54 + 4 x114 + 4 x174 + 4 x234 + 4 x294 - 2 x354 <= 0
 c105: 4 x55 + 4 x115 + 4 x175 + 4 x235 + 4 x295 - 2 x355 <= 0
 c106: 4 x56 + 4 x116 + 4 x176 + 4 x236 + 4 x296 - 2 x356 <= 0
 c107: 4 x57 + 4 x117 + 4 x177 + 4 x237 + 4 x297 - 2 x357 <= 0
 c108: 4 x58 + 4 x118 + 4 x178 + 4 x238 + 4 x298 - 2 x358 <= 0
 c109: 4 x59 + 4 x119 + 4 x179 + 4 x239 + 4 x299 - 2 x359 <= 0
 c110: 4 x60 + 4 x120 + 4 x180 + 4 x240 + 4 x300 - 2 x360 <= 0
Bounds
 0 <= x1 <= 1
 0 <= x2 <= 1
 0 <= x3 <= 1
 0 <= x4 <= 1
 0 <= x5 <= 1
 0 <= x6 <= 1
 0 <= x7 <= 1
 0 <= x8 <= 1
 0 <= x9 <= 1
 0 <= x10 <= 1
 0 <= x11 <= 1
 0 <= x12 <= 1
 0 <= x13 <= 1
 0 <= x14 <= 1
 0 <= x15 <= 1
 0 <= x16 <= 1
 0 <= x17 <= 1
 0 <= x18 <= 1
 0 <= x19 <= 1
 0 <= x20 <= 1
 0 <= x21 <= 1
 0 <= x22 <= 1
 0 <= x23 <= 1
 0 <= x24 <= 1
 0 <= x25 <= 1
 0 <= x26 <= 1
 0 <= x27 <= 1
 0 <= x28 <= 1
 0 <= x29 <= 1
 0 <= x30 <= 1
 0 <= x31 <= 1
 0 <= x32 <= 1
 0 <= x33 <= 1
 0 <= x34 <= 1
 0 <= x35 <= 1
 0 <= x36 <= 1
 0 <= x37 <= 1
 0 <= x38 <= 1
 0 <= x39 <= 1
 0 <= x40 <= 1
 0 <= x41 <= 1
 0 <= x42 <= 1
 0 <= x43 <= 1
 0 <= x44 <= 1
 0 <= x45 <= 1
 0 <= x46 <= 1
 0 <= x47 <= 1
 0 <= x48 <= 1
 0 <= x49 <= 1
 0 <= x50 <= 1
 0 <= x51 <= 1
 0 <= x52 <= 1
 0 <= x53 <= 1
 0 <= x54 <= 1
 0 <= x55 <= 1
 0 <= x56 <= 1
 0 <= x57 <= 1
 0 <= x58 <= 1
 0 <= x59 <= 1
 0 <= x60 <= 1
 0 <= x61 <= 1
 0 <= x62 <= 1
 0 <= x63 <= 1
 0 <= x64 <= 1
 0 <= x65 <= 1
 0 <= x66 <= 1
 0 <= x67 <= 1
 0 <= x68 <= 1
 0 <= x69 <= 1
 0 <= x70 <= 1
 0 <= x71 <= 1
 0 <= x72 <= 1
 0 <= x73 <= 1
 0 <= x74 <= 1
 0 <= x75 <= 1
 0 <= x76 <= 1
 0 <= x77 <= 1
 0 <= x78 <= 1
 0 <= x79 <= 1
 0 <= x80 <= 1
 0 <= x81 <= 1
 0 <= x82 <= 1
 0 <= x83 <= 1
 0 <= x84 <= 1
 0 <= x85 <= 1
 0 <= x86 <= 1
 0 <= x87 <= 1
 0 <= x88 <= 1
 0 <= x89 <= 1
 0 <= x90 <= 1
 0 <= x91 <= 1
 0 <= x92 <= 1
 0 <= x93 <= 1
 0 <= x94 <= 1
 0 <= x95 <= 1
 0 <= x96 <= 1
 0 <= x97 <= 1
 0 <= x98 <= 1
 0 <= x99 <= 1
 0 <= x100 <= 1
 0 <= x101 <= 1
 0 <= x102 <= 1
 0 <= x103 <= 1
 0 <= x104 <= 1
 0 <= x105 <= 1
 0 <= x106 <= 1
 0 <= x107 <= 1
 0 <= x108 <= 1
 0 <= x109 <= 1
 0 <= x110 <= 1
 0 <= x111 <= 1
 0 <= x112 <= 1
 0 <= x113 <= 1
 0 <= x114 <= 1
 0 <= x115 <= 1
 0 <= x116 <= 1
 0 <= x117 <= 1
 0 <= x118 <= 1
 0 <= x119 <= 1
 0 <= x120 <= 1
 0 <= x121 <= 1
 0 <= x122 <= 1
 0 <= x123 <= 1
 0 <= x124 <= 1
 0 <= x125 <= 1
 0 <= x126 <= 1
 0 <= x127 <= 1
 0 <= x128 <= 1
 0 <= x129 <= 1
 0 <= x130 <= 1
 0 <= x131 <= 1
 0 <= x132 <= 1
 0 <= x133 <= 1
 0 <= x134 <= 1
 0 <= x135 <= 1
 0 <= x136 <= 1
 0 <= x137 <= 1
 0 <= x138 <= 1
 0 <= x139 <= 1
 0 <= x140 <= 1
 0 <= x141 <= 1
 0 <= x142 <= 1
 0 <= x143 <= 1
 0 <= x144 <= 1
 0 <= x145 <= 1
 0 <= x146 <= 1
 0 <= x147 <= 1
 0 <= x148 <= 1
 0 <= x149 <= 1
 0 <= x150 <= 1
 0 <= x151 <= 1
 0 <= x152 <= 1
 0 <= x153 <= 1
 0 <= x154 <= 1
 0 <= x155 <= 1
 0 <= x156 <= 1
 0 <= x157 <= 1
 0 <= x158 <= 1
 0 <= x159 <= 1
 0 <= x160 <= 1
 0 <= x161 <= 1
 0 <= x162 <= 1
 0 <= x163 <= 1
 0 <= x164 <= 1
 0 <= x165 <= 1
 0 <= x166 <= 1
 0 <= x167 <= 1
 0 <= x168 <= 1
 0 <= x169 <= 1
 0 <= x170 <= 1
 0 <= x171 <= 1
 0 <= x172 <= 1
 0 <= x173 <= 1
 0 <= x174 <= 1
 0 <= x175 <= 1
 0 <= x176 <= 1
 0 <= x177 <= 1
 0 <= x178 <= 1
 0 <= x179 <= 1
 0 <= x180 <= 1
 0 <= x181 <= 1
 0 <= x182 <= 1
 0 <= x183 <= 1
 0 <= x184 <= 1
 0 <= x185 <= 1
 0 <= x186 <= 1
 0 <= x187 <= 1
 0 <= x188 <= 1
 0 <= x189 <= 1
 0 <= x190 <= 1
 0 <= x191 <= 1
 0 <= x192 <= 1
 0 <= x193 <= 1
 0 <= x194 <= 1
 0 <= x195 <= 1
 0 <= x196 <= 1
 0 <= x197 <= 1
 0 <= x198 <= 1
 0 <= x199 <= 1
 0 <= x200 <= 1
 0 <= x201 <= 1
 0 <= x202 <= 1
 0 <= x203 <= 1
 0 <= x204 <= 1
 0 <= x205 <= 1
 0 <= x206 <= 1
 0 <= x207 <= 1
 0 <= x208 <= 1
 0 <= x209 <= 1
 0 <= x210 <= 1
 0 <= x211 <= 1
 0 <= x212 <= 1
 0 <= x213 <= 1
 0 <= x214 <= 1
 0 <= x215 <= 1
 0 <= x216 <= 1
 0 <= x217 <= 1
 0 <= x218 <= 1
 0 <= x219 <= 1
 0 <= x220 <= 1
 0 <= x221 <= 1
 0 <= x222 <= 1
 0 <= x223 <= 1
 0 <= x224 <= 1
 0 <= x225 <= 1
 0 <= x226 <= 1
 0 <= x227 <= 1
 0 <= x228 <= 1
 0 <= x229 <= 1
 0 <= x230 <= 1
 0 <= x231 <= 1
 0 <= x232 <= 1
 0 <= x233 <= 1
 0 <= x234 <= 1
 0 <= x235 <= 1
 0 <= x236 <= 1
 0 <= x237 <= 1
 0 <= x238 <= 1
 0 <= x239 <= 1
 0 <= x240 <= 1
 0 <= x241 <= 1
 0 <= x242 <= 1
 0 <= x243 <= 1
 0 <= x244 <= 1
 0 <= x245 <= 1
 0 <= x246 <= 1
 0 <= x247 <= 1
 0 <= x248 <= 1
 0 <= x249 <= 1
 0 <= x250 <= 1
 0 <= x251 <= 1
 0 <= x252 <= 1
 0 <= x253 <= 1
 0 <= x254 <= 1
 0 <= x255 <= 1
 0 <= x256 <= 1
 0 <= x257 <= 1
 0 <= x258 <= 1
 0 <= x259 <= 1
 0 <= x260 <= 1
 0 <= x261 <= 1
 0 <= x262 <= 1
 0 <= x263 <= 1
 0 <= x264 <= 1
 0 <= x265 <= 1
 0 <= x266 <= 1
 0 <= x267 <= 1
 0 <= x268 <= 1
 0 <= x269 <= 1
 0 <= x270 <= 1
 0 <= x271 <= 1
 0 <= x272 <= 1
 0 <= x273 <= 1
 0 <= x274 <= 1
 0 <= x275 <= 1
 0 <= x276 <= 1
 0 <= x277 <= 1
 0 <= x278 <= 1
 0 <= x279 <= 1
 0 <= x280 <= 1
 0 <= x281 <= 1
 0 <= x282 <= 1
 0 <= x283 <= 1
 0 <= x284 <= 1
 0 <= x285 <= 1
 0 <= x286 <= 1
 0 <= x287 <= 1
 0 <= x288 <= 1
 0 <= x289 <= 1
 0 <= x290 <= 1
 0 <= x291 <= 1
 0 <= x292 <= 1
 0 <= x293 <= 1
 0 <= x294 <= 1
 0 <= x295 <= 1
 0 <= x296 <= 1
 0 <= x297 <= 1
 0 <= x298 <= 1
 0 <= x299 <= 1
 0 <= x300 <= 1
 0 <= x301 <= 1
 0 <= x302 <= 1
 0 <= x303 <= 1
 0 <= x304 <= 1
 0 <= x305 <= 1
 0 <= x306 <= 1
 0 <= x307 <= 1
 0 <= x308 <= 1
 0 <= x309 <= 1
 0 <= x310 <= 1
 0 <= x311 <= 1
 0 <= x312 <= 1
 0 <= x313 <= 1
 0 <= x314 <= 1
 0 <= x315 <= 1
 0 <= x316 <= 1
 0 <= x317 <= 1
 0 <= x318 <= 1
 0 <= x319 <= 1
 0 <= x320 <= 1
 0 <= x321 <= 1
 0 <= x322 <= 1
 0 <= x323 <= 1
 0 <= x324 <= 1
 0 <= x325 <= 1
 0 <= x326 <= 1
 0 <= x327 <= 1
 0 <= x328 <= 1
 0 <= x329 <= 1
 0 <= x330 <= 1
 0 <= x331 <= 1
 0 <= x332 <= 1
 0 <= x333 <= 1
 0 <= x334 <= 1
 0 <= x335 <= 1
 0 <= x336 <= 1
 0 <= x337 <= 1
 0 <= x338 <= 1
 0 <= x339 <= 1
 0 <= x340 <= 1
 0 <= x341 <= 1
 0 <= x342 <= 1
 0 <= x343 <= 1
 0 <= x344 <= 1
 0 <= x345 <= 1
 0 <= x346 <= 1
 0 <= x347 <= 1
 0 <= x348 <= 1
 0 <= x349 <= 1
 0 <= x350 <= 1
 0 <= x351 <= 1
 0 <= x352 <= 1
 0 <= x353 <= 1
 0 <= x354 <= 1
 0 <= x355 <= 1
 0 <= x356 <= 1
 0 <= x357 <= 1
 0 <= x358 <= 1
 0 <= x359 <= 1
 0 <= x360 <= 1
Binaries
 x301  x302  x303  x304  x305  x306  x307  x308  x309  x310  x311  x312  x313 
 x314  x315  x316  x317  x318  x319  x320  x321  x322  x323  x324  x325  x326 
 x327  x328  x329  x330  x331  x332  x333  x334  x335  x336  x337  x338  x339 
 x340  x341  x342  x343  x344  x345  x346  x347  x348  x349  x350  x351  x352 
 x353  x354  x355  x356  x357  x358  x359  x360 
End
